p cnf 65 235
-3 -1 0
-3 -2 0
1 2 3 0
5 4 0
5 1 0
-4 -1 -5 0
-8 6 0
-8 7 0
-6 -7 8 0
5 -8 -9 0
-5 8 -9 0
5 8 9 0
-5 -8 9 0
11 10 0
11 -5 0
-10 5 -11 0
-12 -9 0
-12 -11 0
9 11 12 0
13 -3 0
13 12 0
3 -12 -13 0
-14 -6 0
-14 -6 0
6 14 0
15 -14 0
15 10 0
14 -10 -15 0
16 15 0
16 -15 0
17 -11 0
17 -4 0
11 4 -17 0
-18 16 0
-18 -17 0
-16 17 18 0
-13 18 -19 0
13 -18 -19 0
-13 -18 19 0
13 18 19 0
-22 20 0
-22 21 0
-20 -21 22 0
23 22 0
23 -5 0
-22 5 -23 0
10 -23 -24 0
-10 23 -24 0
10 23 24 0
-10 -23 24 0
25 19 0
25 -24 0
-19 24 -25 0
-26 1 0
-26 21 0
-1 -21 26 0
27 16 0
27 17 0
-16 -17 -27 0
-14 22 -28 0
14 -22 -28 0
-14 -22 28 0
14 22 28 0
-29 -28 0
-29 -20 0
28 20 29 0
-27 -29 -30 0
27 29 -30 0
-27 29 30 0
27 -29 30 0
26 30 -31 0
-26 -30 -31 0
26 -30 31 0
-26 30 31 0
-32 18 0
-32 -28 0
-18 28 32 0
-33 31 0
-33 -32 0
-31 32 33 0
-34 2 0
-34 -20 0
-2 20 34 0
21 -4 -35 0
-21 4 -35 0
21 4 35 0
-21 -4 35 0
36 10 0
36 35 0
-10 -35 -36 0
-37 -4 0
-37 21 0
4 -21 37 0
37 20 -38 0
-37 -20 -38 0
37 -20 38 0
-37 20 38 0
-40 -38 0
-40 39 0
38 -39 40 0
-41 -36 0
-41 40 0
36 -40 41 0
34 -41 -42 0
-34 41 -42 0
34 41 42 0
-34 -41 42 0
-43 33 0
-43 -42 0
-33 42 43 0
-45 16 0
-45 44 0
-16 -44 45 0
8 2 -46 0
-8 -2 -46 0
8 -2 46 0
-8 2 46 0
47 -6 0
47 -20 0
6 20 -47 0
-48 46 0
-48 -47 0
-46 47 48 0
45 48 -49 0
-45 -48 -49 0
45 -48 49 0
-45 48 49 0
-50 11 0
-50 -23 0
-11 23 50 0
51 -49 0
51 -50 0
49 50 -51 0
-4 -2 -52 0
4 2 -52 0
-4 2 52 0
4 -2 52 0
-53 -51 0
-53 -52 0
51 52 53 0
54 -4 0
54 3 0
4 -3 -54 0
55 23 0
55 -16 0
-23 16 -55 0
-54 -55 -56 0
54 55 -56 0
-54 55 56 0
54 -55 56 0
57 -35 0
57 -18 0
35 18 -57 0
-56 -57 -58 0
56 57 -58 0
-56 57 58 0
56 -57 58 0
-59 -8 0
-59 8 0
-59 3 -60 0
59 -3 -60 0
-59 -3 60 0
59 3 60 0
-35 -60 -61 0
35 60 -61 0
-35 60 61 0
35 -60 61 0
-58 -61 -62 0
58 61 -62 0
-58 61 62 0
58 -61 62 0
-63 53 0
-63 62 0
-53 -62 63 0
64 43 0
64 -63 0
-43 63 -64 0
65 25 0
65 -64 0
-25 64 -65 0
4 -56 0
29 40 50 -37 -15 0
-1 -62 -38 24 0
60 -5 -12 -17 42 0
-60 32 -7 0
16 64 -22 -36 40 -13 0
17 -60 12 -27 -19 32 0
5 -2 -29 0
-64 49 28 -27 6 -4 0
-51 -38 -54 42 0
54 52 -14 0
-23 19 25 -12 -1 -18 0
-22 33 -60 -65 35 0
7 -28 35 22 -46 0
7 57 0
2 -62 6 -8 33 0
-28 -50 36 -12 -47 0
53 39 -22 -47 60 -62 0
-22 -58 65 0
-60 23 -22 42 -21 0
-7 48 60 12 26 0
-30 4 61 -16 0
-36 -64 48 -45 -32 28 0
-17 -9 -63 -55 46 0
-13 -48 0
-8 -9 20 -51 31 -37 0
22 50 -51 -46 -31 0
-2 22 0
-38 16 -52 0
-46 61 0
12 -34 -60 -44 8 -30 0
-13 -62 40 41 5 0
-23 -42 0
-62 -33 12 -22 -26 -63 0
-52 24 -60 -49 0
-25 -36 22 14 -60 0
-39 -50 -4 30 0
59 -61 14 0
52 -9 1 -23 -46 0
7 -2 -27 -49 0
7 -31 35 -44 38 0
-49 51 1 60 0
64 -11 65 -57 -30 -3 0
-55 -51 -64 -6 0
-60 22 -44 -2 -43 6 0
17 62 55 54 0
-54 -50 -62 63 -26 0
-41 -26 0
-55 20 0
37 24 25 -18 33 0
30 12 -27 1 57 55 0
-5 -57 39 0
-23 56 0
-6 42 62 0
65 0
